\ENCODING=ISO-8859-1
\Problem name: ilog.cplex

Maximize
 obj: 10 x(0)(0)#0 + 10 x(0)(1)#1 + 10 x(0)(2)#2 + 10 x(0)(3)#3 + 10 x(0)(4)#4
      + 30 x(1)(0)#5 + 30 x(1)(1)#6 + 30 x(1)(2)#7 + 30 x(1)(3)#8
      + 30 x(1)(4)#9 + 25 x(2)(0)#10 + 25 x(2)(1)#11 + 25 x(2)(2)#12
      + 25 x(2)(3)#13 + 25 x(2)(4)#14 + 50 x(3)(0)#15 + 50 x(3)(1)#16
      + 50 x(3)(2)#17 + 50 x(3)(3)#18 + 50 x(3)(4)#19 + 35 x(4)(0)#20
      + 35 x(4)(1)#21 + 35 x(4)(2)#22 + 35 x(4)(3)#23 + 35 x(4)(4)#24
      + 30 x(5)(0)#25 + 30 x(5)(1)#26 + 30 x(5)(2)#27 + 30 x(5)(3)#28
      + 30 x(5)(4)#29 + 15 x(6)(0)#30 + 15 x(6)(1)#31 + 15 x(6)(2)#32
      + 15 x(6)(3)#33 + 15 x(6)(4)#34 + 40 x(7)(0)#35 + 40 x(7)(1)#36
      + 40 x(7)(2)#37 + 40 x(7)(3)#38 + 40 x(7)(4)#39 + 30 x(8)(0)#40
      + 30 x(8)(1)#41 + 30 x(8)(2)#42 + 30 x(8)(3)#43 + 30 x(8)(4)#44
      + 35 x(9)(0)#45 + 35 x(9)(1)#46 + 35 x(9)(2)#47 + 35 x(9)(3)#48
      + 35 x(9)(4)#49 + 45 x(10)(0)#50 + 45 x(10)(1)#51 + 45 x(10)(2)#52
      + 45 x(10)(3)#53 + 45 x(10)(4)#54 + 10 x(11)(0)#55 + 10 x(11)(1)#56
      + 10 x(11)(2)#57 + 10 x(11)(3)#58 + 10 x(11)(4)#59 + 20 x(12)(0)#60
      + 20 x(12)(1)#61 + 20 x(12)(2)#62 + 20 x(12)(3)#63 + 20 x(12)(4)#64
      + 30 x(13)(0)#65 + 30 x(13)(1)#66 + 30 x(13)(2)#67 + 30 x(13)(3)#68
      + 30 x(13)(4)#69 + 25 x(14)(0)#70 + 25 x(14)(1)#71 + 25 x(14)(2)#72
      + 25 x(14)(3)#73 + 25 x(14)(4)#74
Subject To
 c1:  x(0)(0)#0 + x(0)(1)#1 + x(0)(2)#2 + x(0)(3)#3 + x(0)(4)#4 <= 1
 c3:  x(1)(0)#5 + x(1)(1)#6 + x(1)(2)#7 + x(1)(3)#8 + x(1)(4)#9 <= 1
 c5:  x(2)(0)#10 + x(2)(1)#11 + x(2)(2)#12 + x(2)(3)#13 + x(2)(4)#14 <= 1
 c7:  x(3)(0)#15 + x(3)(1)#16 + x(3)(2)#17 + x(3)(3)#18 + x(3)(4)#19 <= 1
 c9:  x(4)(0)#20 + x(4)(1)#21 + x(4)(2)#22 + x(4)(3)#23 + x(4)(4)#24 <= 1
 c11: x(5)(0)#25 + x(5)(1)#26 + x(5)(2)#27 + x(5)(3)#28 + x(5)(4)#29 <= 1
 c13: x(6)(0)#30 + x(6)(1)#31 + x(6)(2)#32 + x(6)(3)#33 + x(6)(4)#34 <= 1
 c15: x(7)(0)#35 + x(7)(1)#36 + x(7)(2)#37 + x(7)(3)#38 + x(7)(4)#39 <= 1
 c17: x(8)(0)#40 + x(8)(1)#41 + x(8)(2)#42 + x(8)(3)#43 + x(8)(4)#44 <= 1
 c19: x(9)(0)#45 + x(9)(1)#46 + x(9)(2)#47 + x(9)(3)#48 + x(9)(4)#49 <= 1
 c21: x(10)(0)#50 + x(10)(1)#51 + x(10)(2)#52 + x(10)(3)#53 + x(10)(4)#54 <= 1
 c23: x(11)(0)#55 + x(11)(1)#56 + x(11)(2)#57 + x(11)(3)#58 + x(11)(4)#59 <= 1
 c25: x(12)(0)#60 + x(12)(1)#61 + x(12)(2)#62 + x(12)(3)#63 + x(12)(4)#64 <= 1
 c26: x(13)(0)#65 + x(13)(1)#66 + x(13)(2)#67 + x(13)(3)#68 + x(13)(4)#69 <= 1
 c27: x(14)(0)#70 + x(14)(1)#71 + x(14)(2)#72 + x(14)(3)#73 + x(14)(4)#74 <= 1
 c28: 48 x(0)(0)#0 + 30 x(1)(0)#5 + 42 x(2)(0)#10 + 36 x(3)(0)#15
      + 36 x(4)(0)#20 + 48 x(5)(0)#25 + 42 x(6)(0)#30 + 42 x(7)(0)#35
      + 36 x(8)(0)#40 + 24 x(9)(0)#45 + 30 x(10)(0)#50 + 30 x(11)(0)#55
      + 42 x(12)(0)#60 + 36 x(13)(0)#65 + 36 x(14)(0)#70 <= 100
 c29: 48 x(0)(1)#1 + 30 x(1)(1)#6 + 42 x(2)(1)#11 + 36 x(3)(1)#16
      + 36 x(4)(1)#21 + 48 x(5)(1)#26 + 42 x(6)(1)#31 + 42 x(7)(1)#36
      + 36 x(8)(1)#41 + 24 x(9)(1)#46 + 30 x(10)(1)#51 + 30 x(11)(1)#56
      + 42 x(12)(1)#61 + 36 x(13)(1)#66 + 36 x(14)(1)#71 <= 100
 c30: 48 x(0)(2)#2 + 30 x(1)(2)#7 + 42 x(2)(2)#12 + 36 x(3)(2)#17
      + 36 x(4)(2)#22 + 48 x(5)(2)#27 + 42 x(6)(2)#32 + 42 x(7)(2)#37
      + 36 x(8)(2)#42 + 24 x(9)(2)#47 + 30 x(10)(2)#52 + 30 x(11)(2)#57
      + 42 x(12)(2)#62 + 36 x(13)(2)#67 + 36 x(14)(2)#72 <= 100
 c31: 48 x(0)(3)#3 + 30 x(1)(3)#8 + 42 x(2)(3)#13 + 36 x(3)(3)#18
      + 36 x(4)(3)#23 + 48 x(5)(3)#28 + 42 x(6)(3)#33 + 42 x(7)(3)#38
      + 36 x(8)(3)#43 + 24 x(9)(3)#48 + 30 x(10)(3)#53 + 30 x(11)(3)#58
      + 42 x(12)(3)#63 + 36 x(13)(3)#68 + 36 x(14)(3)#73 <= 100
 c32: 48 x(0)(4)#4 + 30 x(1)(4)#9 + 42 x(2)(4)#14 + 36 x(3)(4)#19
      + 36 x(4)(4)#24 + 48 x(5)(4)#29 + 42 x(6)(4)#34 + 42 x(7)(4)#39
      + 36 x(8)(4)#44 + 24 x(9)(4)#49 + 30 x(10)(4)#54 + 30 x(11)(4)#59
      + 42 x(12)(4)#64 + 36 x(13)(4)#69 + 36 x(14)(4)#74 <= 100
Bounds
 0 <= x(0)(0)#0 <= 1
 0 <= x(0)(1)#1 <= 1
 0 <= x(0)(2)#2 <= 1
 0 <= x(0)(3)#3 <= 1
 0 <= x(0)(4)#4 <= 1
 0 <= x(1)(0)#5 <= 1
 0 <= x(1)(1)#6 <= 1
 0 <= x(1)(2)#7 <= 1
 0 <= x(1)(3)#8 <= 1
 0 <= x(1)(4)#9 <= 1
 0 <= x(2)(0)#10 <= 1
 0 <= x(2)(1)#11 <= 1
 0 <= x(2)(2)#12 <= 1
 0 <= x(2)(3)#13 <= 1
 0 <= x(2)(4)#14 <= 1
 0 <= x(3)(0)#15 <= 1
 0 <= x(3)(1)#16 <= 1
 0 <= x(3)(2)#17 <= 1
 0 <= x(3)(3)#18 <= 1
 0 <= x(3)(4)#19 <= 1
 0 <= x(4)(0)#20 <= 1
 0 <= x(4)(1)#21 <= 1
 0 <= x(4)(2)#22 <= 1
 0 <= x(4)(3)#23 <= 1
 0 <= x(4)(4)#24 <= 1
 0 <= x(5)(0)#25 <= 1
 0 <= x(5)(1)#26 <= 1
 0 <= x(5)(2)#27 <= 1
 0 <= x(5)(3)#28 <= 1
 0 <= x(5)(4)#29 <= 1
 0 <= x(6)(0)#30 <= 1
 0 <= x(6)(1)#31 <= 1
 0 <= x(6)(2)#32 <= 1
 0 <= x(6)(3)#33 <= 1
 0 <= x(6)(4)#34 <= 1
 0 <= x(7)(0)#35 <= 1
 0 <= x(7)(1)#36 <= 1
 0 <= x(7)(2)#37 <= 1
 0 <= x(7)(3)#38 <= 1
 0 <= x(7)(4)#39 <= 1
 0 <= x(8)(0)#40 <= 1
 0 <= x(8)(1)#41 <= 1
 0 <= x(8)(2)#42 <= 1
 0 <= x(8)(3)#43 <= 1
 0 <= x(8)(4)#44 <= 1
 0 <= x(9)(0)#45 <= 1
 0 <= x(9)(1)#46 <= 1
 0 <= x(9)(2)#47 <= 1
 0 <= x(9)(3)#48 <= 1
 0 <= x(9)(4)#49 <= 1
 0 <= x(10)(0)#50 <= 1
 0 <= x(10)(1)#51 <= 1
 0 <= x(10)(2)#52 <= 1
 0 <= x(10)(3)#53 <= 1
 0 <= x(10)(4)#54 <= 1
 0 <= x(11)(0)#55 <= 1
 0 <= x(11)(1)#56 <= 1
 0 <= x(11)(2)#57 <= 1
 0 <= x(11)(3)#58 <= 1
 0 <= x(11)(4)#59 <= 1
 0 <= x(12)(0)#60 <= 1
 0 <= x(12)(1)#61 <= 1
 0 <= x(12)(2)#62 <= 1
 0 <= x(12)(3)#63 <= 1
 0 <= x(12)(4)#64 <= 1
 0 <= x(13)(0)#65 <= 1
 0 <= x(13)(1)#66 <= 1
 0 <= x(13)(2)#67 <= 1
 0 <= x(13)(3)#68 <= 1
 0 <= x(13)(4)#69 <= 1
 0 <= x(14)(0)#70 <= 1
 0 <= x(14)(1)#71 <= 1
 0 <= x(14)(2)#72 <= 1
 0 <= x(14)(3)#73 <= 1
 0 <= x(14)(4)#74 <= 1
Generals
 x(0)(0)#0  x(0)(1)#1  x(0)(2)#2  x(0)(3)#3  x(0)(4)#4  x(1)(0)#5  x(1)(1)#6 
 x(1)(2)#7  x(1)(3)#8  x(1)(4)#9  x(2)(0)#10  x(2)(1)#11  x(2)(2)#12 
 x(2)(3)#13  x(2)(4)#14  x(3)(0)#15  x(3)(1)#16  x(3)(2)#17  x(3)(3)#18 
 x(3)(4)#19  x(4)(0)#20  x(4)(1)#21  x(4)(2)#22  x(4)(3)#23  x(4)(4)#24 
 x(5)(0)#25  x(5)(1)#26  x(5)(2)#27  x(5)(3)#28  x(5)(4)#29  x(6)(0)#30 
 x(6)(1)#31  x(6)(2)#32  x(6)(3)#33  x(6)(4)#34  x(7)(0)#35  x(7)(1)#36 
 x(7)(2)#37  x(7)(3)#38  x(7)(4)#39  x(8)(0)#40  x(8)(1)#41  x(8)(2)#42 
 x(8)(3)#43  x(8)(4)#44  x(9)(0)#45  x(9)(1)#46  x(9)(2)#47  x(9)(3)#48 
 x(9)(4)#49  x(10)(0)#50  x(10)(1)#51  x(10)(2)#52  x(10)(3)#53  x(10)(4)#54 
 x(11)(0)#55  x(11)(1)#56  x(11)(2)#57  x(11)(3)#58  x(11)(4)#59  x(12)(0)#60 
 x(12)(1)#61  x(12)(2)#62  x(12)(3)#63  x(12)(4)#64  x(13)(0)#65  x(13)(1)#66 
 x(13)(2)#67  x(13)(3)#68  x(13)(4)#69  x(14)(0)#70  x(14)(1)#71  x(14)(2)#72 
 x(14)(3)#73  x(14)(4)#74 
End
